proyfinal/src/viki/013/experimentInOfficeAgust.take6.output/898a6904-5d7d-4b99-9a89-db4d1e08857e.als.out
Reading from standard input... Use '--help' for help.
============================[ Problem Statistics ]=============================
|                                                                             |
|  Number of variables:         87638                                         |
|  Number of clauses:          161767                                         |
|  Parse time:                   0.03 s                                       |
|                                                                             |
============================[ Search Statistics ]==============================
| Conflicts |          ORIGINAL         |          LEARNT          | Progress |
|           |    Vars  Clauses Literals |    Limit  Clauses Lit/Cl |          |
===============================================================================
|       100 |   63045   107602   269089 |    39454      100     11 | 28.062 % |
|       250 |   63045   107602   269089 |    43399      250     33 | 28.062 % |
|       475 |   63045   107602   269089 |    47739      475     48 | 28.062 % |
|       812 |   44093    51316   130767 |    52513      808     41 | 49.687 % |
|      1318 |   44092    51272   130677 |    57764     1310     37 | 49.688 % |
|      2077 |   44092    51272   130677 |    63541     2069     33 | 49.688 % |
|      3216 |   44091    51256   130644 |    69895     3200     30 | 49.690 % |
===============================================================================
restarts              : 23
conflicts             : 4480           (10331 /sec)
decisions             : 11807          (0.00 % random) (27227 /sec)
propagations          : 6026095        (13896058 /sec)
conflict literals     : 125197         (30.90 % deleted)
Memory used           : 23.15 MB
CPU time              : 0.433655 s

UNSATISFIABLE
